;---
; using 8-bit bit-vectors as characters
; check membership of .Net regex
; regexA = ^([A-Z|a-z|&amp;]{3})(([0-9]{2})([0][13456789]|[1][012])([0][1-9]|[12][\d]|[3][0])|([0-9]{2})([0][13578]|[1][02])([0][1-9]|[12][\d]|[3][01])|([02468][048]|[13579][26])([0][2])([0][1-9]|[12][\d])|([1-9]{2})([0][2])([0][1-9]|[12][0-8]))(\w{2}[A|a|0-9]{1})$|^([A-Z|a-z]{4})(([0-9]{2})([0][13456789]|[1][012])([0][1-9]|[12][\d]|[3][0])|([0-9]{2})([0][13578]|[1][02])([0][1-9]|[12][\d]|[3][01])|([02468][048]|[13579][26])([0][2])([0][1-9]|[12][\d])|([1-9]{2})([0][2])([0][1-9]|[12][0-8]))((\w{2})([A|a|0-9]{1})){0,3}$
;---
(set-info :status sat)
(set-option :print-success true)
(set-logic QF_BVRE)

(declare-const regexA (RegEx String))
(declare-const x String)

;witness1: "ZZ&800219\u00DA\u00CFa"
(define-fun Witness1 () String (seq.++ "Z" (seq.++ "Z" (seq.++ "&" (seq.++ "8" (seq.++ "0" (seq.++ "0" (seq.++ "2" (seq.++ "1" (seq.++ "9" (seq.++ "\xda" (seq.++ "\xcf" (seq.++ "a" "")))))))))))))
;witness2: "|Ica8802288J7uu|"
(define-fun Witness2 () String (seq.++ "|" (seq.++ "I" (seq.++ "c" (seq.++ "a" (seq.++ "8" (seq.++ "8" (seq.++ "0" (seq.++ "2" (seq.++ "2" (seq.++ "8" (seq.++ "8" (seq.++ "J" (seq.++ "7" (seq.++ "u" (seq.++ "u" (seq.++ "|" "")))))))))))))))))

(assert (= regexA (re.union (re.++ (str.to_re "")(re.++ ((_ re.loop 3 3) (re.union (re.range "&" "&")(re.union (re.range ";" ";")(re.union (re.range "A" "Z")(re.union (re.range "a" "z") (re.range "|" "|"))))))(re.++ (re.union (re.++ ((_ re.loop 2 2) (re.range "0" "9"))(re.++ (re.union (re.++ (re.range "0" "0") (re.union (re.range "1" "1") (re.range "3" "9"))) (re.++ (re.range "1" "1") (re.range "0" "2"))) (re.union (re.++ (re.range "0" "0") (re.range "1" "9"))(re.union (re.++ (re.range "1" "2") (re.range "0" "9")) (str.to_re (seq.++ "3" (seq.++ "0" "")))))))(re.union (re.++ ((_ re.loop 2 2) (re.range "0" "9"))(re.++ (re.union (re.++ (re.range "0" "0") (re.union (re.range "1" "1")(re.union (re.range "3" "3")(re.union (re.range "5" "5") (re.range "7" "8"))))) (re.++ (re.range "1" "1") (re.union (re.range "0" "0") (re.range "2" "2")))) (re.union (re.++ (re.range "0" "0") (re.range "1" "9"))(re.union (re.++ (re.range "1" "2") (re.range "0" "9")) (re.++ (re.range "3" "3") (re.range "0" "1"))))))(re.union (re.++ (re.union (re.++ (re.union (re.range "0" "0")(re.union (re.range "2" "2")(re.union (re.range "4" "4")(re.union (re.range "6" "6") (re.range "8" "8"))))) (re.union (re.range "0" "0")(re.union (re.range "4" "4") (re.range "8" "8")))) (re.++ (re.union (re.range "1" "1")(re.union (re.range "3" "3")(re.union (re.range "5" "5")(re.union (re.range "7" "7") (re.range "9" "9"))))) (re.union (re.range "2" "2") (re.range "6" "6"))))(re.++ (str.to_re (seq.++ "0" (seq.++ "2" ""))) (re.union (re.++ (re.range "0" "0") (re.range "1" "9")) (re.++ (re.range "1" "2") (re.range "0" "9"))))) (re.++ ((_ re.loop 2 2) (re.range "1" "9"))(re.++ (str.to_re (seq.++ "0" (seq.++ "2" ""))) (re.union (re.++ (re.range "0" "0") (re.range "1" "9")) (re.++ (re.range "1" "2") (re.range "0" "8"))))))))(re.++ (re.++ ((_ re.loop 2 2) (re.union (re.range "0" "9")(re.union (re.range "A" "Z")(re.union (re.range "_" "_")(re.union (re.range "a" "z")(re.union (re.range "\xaa" "\xaa")(re.union (re.range "\xb5" "\xb5")(re.union (re.range "\xba" "\xba")(re.union (re.range "\xc0" "\xd6")(re.union (re.range "\xd8" "\xf6") (re.range "\xf8" "\xff"))))))))))) (re.union (re.range "0" "9")(re.union (re.range "A" "A")(re.union (re.range "a" "a") (re.range "|" "|"))))) (str.to_re ""))))) (re.++ (str.to_re "")(re.++ ((_ re.loop 4 4) (re.union (re.range "A" "Z")(re.union (re.range "a" "z") (re.range "|" "|"))))(re.++ (re.union (re.++ ((_ re.loop 2 2) (re.range "0" "9"))(re.++ (re.union (re.++ (re.range "0" "0") (re.union (re.range "1" "1") (re.range "3" "9"))) (re.++ (re.range "1" "1") (re.range "0" "2"))) (re.union (re.++ (re.range "0" "0") (re.range "1" "9"))(re.union (re.++ (re.range "1" "2") (re.range "0" "9")) (str.to_re (seq.++ "3" (seq.++ "0" "")))))))(re.union (re.++ ((_ re.loop 2 2) (re.range "0" "9"))(re.++ (re.union (re.++ (re.range "0" "0") (re.union (re.range "1" "1")(re.union (re.range "3" "3")(re.union (re.range "5" "5") (re.range "7" "8"))))) (re.++ (re.range "1" "1") (re.union (re.range "0" "0") (re.range "2" "2")))) (re.union (re.++ (re.range "0" "0") (re.range "1" "9"))(re.union (re.++ (re.range "1" "2") (re.range "0" "9")) (re.++ (re.range "3" "3") (re.range "0" "1"))))))(re.union (re.++ (re.union (re.++ (re.union (re.range "0" "0")(re.union (re.range "2" "2")(re.union (re.range "4" "4")(re.union (re.range "6" "6") (re.range "8" "8"))))) (re.union (re.range "0" "0")(re.union (re.range "4" "4") (re.range "8" "8")))) (re.++ (re.union (re.range "1" "1")(re.union (re.range "3" "3")(re.union (re.range "5" "5")(re.union (re.range "7" "7") (re.range "9" "9"))))) (re.union (re.range "2" "2") (re.range "6" "6"))))(re.++ (str.to_re (seq.++ "0" (seq.++ "2" ""))) (re.union (re.++ (re.range "0" "0") (re.range "1" "9")) (re.++ (re.range "1" "2") (re.range "0" "9"))))) (re.++ ((_ re.loop 2 2) (re.range "1" "9"))(re.++ (str.to_re (seq.++ "0" (seq.++ "2" ""))) (re.union (re.++ (re.range "0" "0") (re.range "1" "9")) (re.++ (re.range "1" "2") (re.range "0" "8"))))))))(re.++ ((_ re.loop 0 3) (re.++ ((_ re.loop 2 2) (re.union (re.range "0" "9")(re.union (re.range "A" "Z")(re.union (re.range "_" "_")(re.union (re.range "a" "z")(re.union (re.range "\xaa" "\xaa")(re.union (re.range "\xb5" "\xb5")(re.union (re.range "\xba" "\xba")(re.union (re.range "\xc0" "\xd6")(re.union (re.range "\xd8" "\xf6") (re.range "\xf8" "\xff"))))))))))) (re.union (re.range "0" "9")(re.union (re.range "A" "A")(re.union (re.range "a" "a") (re.range "|" "|")))))) (str.to_re ""))))))))

;check that the regex contains some x
(assert (str.in_re x regexA))
;check also the concrete witnesses
(assert (str.in_re Witness1 regexA))
(assert (str.in_re Witness2 regexA))
(check-sat)
